
Log started (V11.0.0) Sun Apr 13 13:00:41 2008

Tried aggregator 1 time.
Reduced MIP has 130 rows, 3001 columns, and 6030 nonzeros.
Presolve time =    0.02 sec.
Clique table members: 100.
MIP emphasis: balance optimality and feasibility.
MIP search method: dynamic search.
Parallel mode: none, using 1 thread.
Root relaxation solution time =    0.05 sec.

        Nodes                                         Cuts/
   Node  Left     Objective  IInf  Best Integer     Best Node    ItCnt     Gap

*     0+    0                         5248.0000       12.6861      477   99.76%
*     0+    0                           27.0000       12.6861      477   53.01%
      0     0       13.4664    64       27.0000      Fract: 9      550   50.12%
*     0+    0                           26.0000       13.4664      550   48.21%
      0     0       13.8454    89       26.0000      Cuts: 26      616   46.75%
*     0+    0                           25.0000       13.8454      616   44.62%
      0     0       14.1837   113       25.0000      Cuts: 21      680   43.27%
*     0+    0                           23.0000       14.1837      680   38.33%
      0     0       14.3601   107       23.0000      Cuts: 14      723   37.56%
*     0+    0                           21.0000       14.3601      723   31.62%
      0     0       16.0000    33       21.0000      Cuts: 18      758   23.81%
*     0+    0                           20.0000       16.0000      758   20.00%
      0     0       16.0000    26       20.0000       Cuts: 2      762   20.00%
*     0+    0                           19.0000       16.0000      762   15.79%
      0     0       16.0000    22       19.0000       Cuts: 2      763   15.79%
*     0+    0                           18.0000       16.0000      763   11.11%
      0     0       16.0000    20       18.0000   Flowcuts: 1      765   11.11%
*     0+    0                           17.0000       16.0000      765    5.88%
*     0+    0                           16.0000       16.0000      765    0.00%

Clique cuts applied:  3
Implied bound cuts applied:  2
Flow cuts applied:  2
Mixed integer rounding cuts applied:  22
Zero-half cuts applied:  1
Gomory fractional cuts applied:  4

Solution pool: 11 solutions saved.

MIP - Integer optimal solution:  Objective = 1.6000000000e+001
Solution time =    0.42 sec.  Iterations = 765  Nodes = 0


Incumbent solution
Variable Name           Solution Value
Cmax                         16.000000
X_1_27                        1.000000
X_2_21                        1.000000
X_3_14                        1.000000
X_4_16                        1.000000
X_5_25                        1.000000
X_6_25                        1.000000
X_7_10                        1.000000
X_8_10                        1.000000
X_9_9                         1.000000
X_10_10                       1.000000
X_11_24                       1.000000
X_12_19                       1.000000
X_13_18                       1.000000
X_14_6                        1.000000
X_15_11                       1.000000
X_16_2                        1.000000
X_17_24                       1.000000
X_18_30                       1.000000
X_19_13                       1.000000
X_20_2                        1.000000
X_21_26                       1.000000
X_22_19                       1.000000
X_23_6                        1.000000
X_24_17                       1.000000
X_25_8                        1.000000
X_26_6                        1.000000
X_27_29                       1.000000
X_28_6                        1.000000
X_29_3                        1.000000
X_30_18                       1.000000
X_31_3                        1.000000
X_32_9                        1.000000
X_33_16                       1.000000
X_34_9                        1.000000
X_35_18                       1.000000
X_36_1                        1.000000
X_37_4                        1.000000
X_38_12                       1.000000
X_39_21                       1.000000
X_40_27                       1.000000
X_41_22                       1.000000
X_42_23                       1.000000
X_43_21                       1.000000
X_44_5                        1.000000
X_45_8                        1.000000
X_46_19                       1.000000
X_47_29                       1.000000
X_48_8                        1.000000
X_49_15                       1.000000
X_50_17                       1.000000
X_51_28                       1.000000
X_52_8                        1.000000
X_53_26                       1.000000
X_54_5                        1.000000
X_55_27                       1.000000
X_56_7                        1.000000
X_57_22                       1.000000
X_58_8                        1.000000
X_59_30                       1.000000
X_60_26                       1.000000
X_61_27                       1.000000
X_62_11                       1.000000
X_63_20                       1.000000
X_64_28                       1.000000
X_65_23                       1.000000
X_66_23                       1.000000
X_67_21                       1.000000
X_68_3                        1.000000
X_69_7                        1.000000
X_70_14                       1.000000
X_71_19                       1.000000
X_72_1                        1.000000
X_73_19                       1.000000
X_74_13                       1.000000
X_75_17                       1.000000
X_76_26                       1.000000
X_77_20                       1.000000
X_78_2                        1.000000
X_79_12                       1.000000
X_80_20                       1.000000
X_81_14                       1.000000
X_82_7                        1.000000
X_83_9                        1.000000
X_84_14                       1.000000
X_85_7                        1.000000
X_86_15                       1.000000
X_87_23                       1.000000
X_88_25                       1.000000
X_89_11                       1.000000
X_90_5                        1.000000
X_91_20                       1.000000
X_92_5                        1.000000
X_93_15                       1.000000
X_94_17                       1.000000
X_95_1                        1.000000
X_96_1                        1.000000
X_97_11                       1.000000
X_98_25                       1.000000
X_99_30                       1.000000
X_100_16                      1.000000
All other variables in the range 1-3001 are 0.
